; benchmark generated from python API
(set-info :status unknown)
(declare-fun x_month () Int)
(declare-fun x_day () Int)
(declare-fun x_year () Int)
(declare-fun y_month () Int)
(declare-fun y_day () Int)
(declare-fun y_year () Int)
(assert
 (>= x_month 1))
(assert
 (<= x_month 12))
(assert
 (>= x_day 1))
(assert
 (<= x_day 31))
(assert
 (let (($x714 (<= x_day 28)))
 (let (($x786 (<= x_day 29)))
 (let (($x391 (= (mod x_year 400) 0)))
 (let (($x213 (= (mod x_year 4) 0)))
 (let (($x715 (ite (or (and $x213 (and (distinct (mod x_year 100) 0) true)) $x391) $x786 $x714)))
 (let (($x655 (= x_month 2)))
 (ite $x655 $x715 true))))))))
(assert
 (let (($x513 (<= x_day 30)))
 (let (($x132 (or (= x_month 4) (= x_month 6) (= x_month 9) (= x_month 11))))
 (ite $x132 $x513 true))))
(assert
 (>= y_month 1))
(assert
 (<= y_month 12))
(assert
 (>= y_day 1))
(assert
 (<= y_day 31))
(assert
 (let (($x468 (<= y_day 28)))
 (let (($x600 (<= y_day 29)))
 (let (($x138 (= (mod y_year 400) 0)))
 (let (($x433 (= (mod y_year 4) 0)))
 (let (($x481 (ite (or (and $x433 (and (distinct (mod y_year 100) 0) true)) $x138) $x600 $x468)))
 (let (($x235 (= y_month 2)))
 (ite $x235 $x481 true))))))))
(assert
 (let (($x775 (<= y_day 30)))
 (let (($x273 (or (= y_month 4) (= y_month 6) (= y_month 9) (= y_month 11))))
 (ite $x273 $x775 true))))
(assert
 (let (($x575 (= x_day 29)))
 (let (($x655 (= x_month 2)))
 (let (($x475 (= x_year 2020)))
 (and $x475 $x655 $x575)))))
(assert
 (let (($x29 (or (and (= (mod 2000 4) 0) (and (distinct (mod 2000 100) 0) true)) (= (mod 2000 400) 0))))
 (let ((?x36 (ite (= 3 2) (ite $x29 31 31) (ite (= 3 1) (ite $x29 0 0) 0))))
 (let ((?x46 (ite (= 3 4) (ite $x29 91 90) (ite (= 3 3) (ite $x29 60 59) ?x36))))
 (let ((?x58 (ite (= 3 6) (ite $x29 152 151) (ite (= 3 5) (ite $x29 121 120) ?x46))))
 (let ((?x70 (ite (= 3 8) (ite $x29 213 212) (ite (= 3 7) (ite $x29 182 181) ?x58))))
 (let ((?x82 (ite (= 3 10) (ite $x29 274 273) (ite (= 3 9) (ite $x29 244 243) ?x70))))
 (let ((?x94 (ite (= 3 12) (ite $x29 335 334) (ite (= 3 11) (ite $x29 305 304) ?x82))))
 (let ((?x16 (- (+ (* 365 (- 2000 1)) (div (- 2000 1) 4)) (div (- 2000 1) 100))))
 (let ((?x97 (+ (+ (+ ?x16 (div (- 2000 1) 400)) ?x94) (- 1 1))))
 (let ((?x108 (+ (mod (- (+ x_month (+ (* 1 12) 0)) 1) 12) 1)))
 (let ((?x543 (ite (or (= ?x108 4) (= ?x108 6) (= ?x108 9) (= ?x108 11)) 30 31)))
 (let ((?x833 (+ 0 (div (- (+ x_month (+ (* 1 12) 0)) 1) 12))))
 (let ((?x834 (+ x_year ?x833)))
 (let (($x130 (or (and (= (mod ?x834 4) 0) (and (distinct (mod ?x834 100) 0) true)) (= (mod ?x834 400) 0))))
 (let ((?x388 (ite (= ?x108 2) (ite $x130 29 28) ?x543)))
 (let ((?x708 (ite (< x_day 1) 1 (ite (> x_day ?x388) ?x388 x_day))))
 (let ((?x304 (ite (< ?x708 1) 1 (ite (> ?x708 ?x388) ?x388 ?x708))))
 (let ((?x546 (ite (= 2 ?x108) (ite $x130 31 31) (ite (= 1 ?x108) (ite $x130 0 0) 0))))
 (let ((?x561 (ite (= 4 ?x108) (ite $x130 91 90) (ite (= 3 ?x108) (ite $x130 60 59) ?x546))))
 (let ((?x469 (ite (= 6 ?x108) (ite $x130 152 151) (ite (= 5 ?x108) (ite $x130 121 120) ?x561))))
 (let ((?x723 (ite (= 8 ?x108) (ite $x130 213 212) (ite (= 7 ?x108) (ite $x130 182 181) ?x469))))
 (let ((?x416 (ite (= 10 ?x108) (ite $x130 274 273) (ite (= 9 ?x108) (ite $x130 244 243) ?x723))))
 (let ((?x794 (ite (= 12 ?x108) (ite $x130 335 334) (ite (= 11 ?x108) (ite $x130 305 304) ?x416))))
 (let ((?x286 (- (+ (* 365 (- ?x834 1)) (div (- ?x834 1) 4)) (div (- ?x834 1) 100))))
 (let ((?x389 (- (+ (+ (+ ?x286 (div (- ?x834 1) 400)) ?x794) (- ?x304 1)) ?x97)))
 (let ((?x384 (+ (+ ?x389 0) ?x97)))
 (let ((?x417 (mod ?x384 146097)))
 (let ((?x392 (div ?x417 36524)))
 (let ((?x395 (ite (<= 4 ?x392) 3 ?x392)))
 (let ((?x387 (- ?x417 (* ?x395 36524))))
 (let ((?x239 (mod ?x387 1461)))
 (let ((?x201 (div ?x239 365)))
 (let ((?x393 (ite (<= 4 ?x201) 3 ?x201)))
 (let ((?x649 (+ (+ (* (div ?x384 146097) 400) (* ?x395 100)) (* (div ?x387 1461) 4))))
 (let ((?x340 (+ (+ ?x649 ?x393) 1)))
 (let (($x809 (or (and (= (mod ?x340 4) 0) (and (distinct (mod ?x340 100) 0) true)) (= (mod ?x340 400) 0))))
 (let ((?x418 (- ?x239 (* ?x393 365))))
 (let ((?x563 (ite $x809 31 31)))
 (let (($x698 (>= ?x418 ?x563)))
 (let ((?x663 (ite $x698 (+ (- ?x418 ?x563) 1) (+ (- ?x418 (ite $x809 0 0)) 1))))
 (let ((?x607 (ite $x809 60 59)))
 (let (($x120 (>= ?x418 ?x607)))
 (let ((?x592 (ite $x809 91 90)))
 (let (($x551 (>= ?x418 ?x592)))
 (let ((?x478 (ite $x551 (+ (- ?x418 ?x592) 1) (ite $x120 (+ (- ?x418 ?x607) 1) ?x663))))
 (let ((?x805 (ite $x809 121 120)))
 (let (($x643 (>= ?x418 ?x805)))
 (let ((?x562 (ite $x809 152 151)))
 (let (($x851 (>= ?x418 ?x562)))
 (let ((?x260 (ite $x851 (+ (- ?x418 ?x562) 1) (ite $x643 (+ (- ?x418 ?x805) 1) ?x478))))
 (let ((?x570 (ite $x809 182 181)))
 (let (($x633 (>= ?x418 ?x570)))
 (let ((?x735 (ite $x809 213 212)))
 (let (($x744 (>= ?x418 ?x735)))
 (let ((?x275 (ite $x744 (+ (- ?x418 ?x735) 1) (ite $x633 (+ (- ?x418 ?x570) 1) ?x260))))
 (let ((?x398 (ite $x809 244 243)))
 (let (($x742 (>= ?x418 ?x398)))
 (let ((?x422 (ite $x809 274 273)))
 (let (($x754 (>= ?x418 ?x422)))
 (let ((?x554 (ite $x754 (+ (- ?x418 ?x422) 1) (ite $x742 (+ (- ?x418 ?x398) 1) ?x275))))
 (let ((?x784 (ite $x809 305 304)))
 (let (($x722 (>= ?x418 ?x784)))
 (let ((?x118 (ite $x809 335 334)))
 (let (($x586 (>= ?x418 ?x118)))
 (let ((?x194 (ite $x586 (+ (- ?x418 ?x118) 1) (ite $x722 (+ (- ?x418 ?x784) 1) ?x554))))
 (let (($x186 (= 0 0)))
 (let ((?x691 (ite $x643 5 (ite $x551 4 (ite $x120 3 (ite $x698 2 1))))))
 (let ((?x740 (ite $x742 9 (ite $x744 8 (ite $x633 7 (ite $x851 6 ?x691))))))
 (let (($x261 (= y_month (ite $x186 ?x108 (ite $x586 12 (ite $x722 11 (ite $x754 10 ?x740)))))))
 (and (= y_year (ite $x186 ?x834 ?x340)) $x261 (= y_day (ite $x186 ?x304 ?x194)))))))))))))))))))))))))))))))))))))))))))))))))))))))))))))))))))))))))
(assert
 (not (and (= y_year 2021) (= y_month 2) (= y_day 28))))
(check-sat)
